#######################################
### Exact MIP solver for the HHCRSP ###
#######################################
-- Instance file: new-instances/HHCRSP_50_10_64_1.0_R_C.txt
-- Max threads: 4
-- Time limit: 999999 seconds
-- Use initial solution: No
Trivial flow violations prevented generating 5977 variables.
Model exported.
Version identifier: 20.1.0.0 | 2020-11-10 | 9bedb6d68
CPXPARAM_Threads                                 4
CPXPARAM_TimeLimit                               999999
Parallel mode: deterministic, using up to 4 threads for concurrent optimization:
 * Starting dual Simplex on 1 thread...
 * Starting Barrier on 3 threads...
Tried aggregator 1 time.
LP Presolve eliminated 1224 rows and 254 columns.
Reduced LP has 5560 rows, 5371 columns, and 44638 nonzeros.
Presolve time = 0.02 sec. (13.36 ticks)
Symmetry aggregator did 3957 additional substitutions.

Iteration log . . .
Iteration:     1   Dual objective     =             0.000000
Iteration:   188   Dual objective     =            73.333333

Dual crossover.
  Dual:  Fixing 70 variables.
       69 DMoves:  Infeasibility  1.53765931e-14  Objective  7.33364300e+01
        0 DMoves:  Infeasibility  3.71063196e-15  Objective  7.33364300e+01
  Dual:  Pushed 4, exchanged 66.
  Primal:  Fixing 22 variables.
       21 PMoves:  Infeasibility  1.11022302e-16  Objective  7.33364300e+01
        0 PMoves:  Infeasibility  1.11022302e-16  Objective  7.33364300e+01
  Primal:  Pushed 6, exchanged 16.

Dual simplex solved model.


Solution status from MIP model:
-- Processing time: 0.045 sec.
-- Memory used: 71.9258 MB
-- Best bound: inf
-- Obj value: 73.3364
-- Gap: inf%
-- Total distance: 220.009
-- Total tardiness: 0
-- Largest tardiness: 0
